; benchmark generated from python API
(set-info :status unknown)
(declare-fun x_days () Int)
(declare-fun y_days () Int)
(declare-fun z_days () Int)
(assert
 (>= x_days (- 36584)))
(assert
 (<= x_days 36829))
(assert
 (= x_days 8371))
(assert
 (>= y_days (- 36584)))
(assert
 (<= y_days 36829))
(assert
 (>= z_days (- 36584)))
(assert
 (<= z_days 36829))
(assert
 (let ((?x862 (+ x_days 730179)))
 (let ((?x206 (mod ?x862 146097)))
 (let ((?x504 (div ?x206 36524)))
 (let ((?x668 (ite (<= 4 ?x504) 3 ?x504)))
 (let ((?x663 (- ?x206 (* ?x668 36524))))
 (let ((?x214 (mod ?x663 1461)))
 (let ((?x425 (div ?x214 365)))
 (let ((?x319 (ite (<= 4 ?x425) 3 ?x425)))
 (let ((?x464 (+ (+ (* (div ?x862 146097) 400) (* ?x668 100)) (* (div ?x663 1461) 4))))
 (let ((?x397 (+ (+ ?x464 ?x319) 1)))
 (let (($x246 (or (and (= (mod ?x397 4) 0) (and (distinct (mod ?x397 100) 0) true)) (= (mod ?x397 400) 0))))
 (let ((?x628 (- ?x214 (* ?x319 365))))
 (let ((?x583 (ite $x246 31 31)))
 (let (($x952 (>= ?x628 ?x583)))
 (let ((?x478 (ite $x952 (+ (- ?x628 ?x583) 1) (+ (- ?x628 (ite $x246 0 0)) 1))))
 (let ((?x910 (ite $x246 60 59)))
 (let (($x610 (>= ?x628 ?x910)))
 (let ((?x2351 (ite $x246 91 90)))
 (let (($x687 (>= ?x628 ?x2351)))
 (let ((?x632 (ite $x687 (+ (- ?x628 ?x2351) 1) (ite $x610 (+ (- ?x628 ?x910) 1) ?x478))))
 (let ((?x2983 (ite $x246 121 120)))
 (let (($x1281 (>= ?x628 ?x2983)))
 (let ((?x911 (ite $x246 152 151)))
 (let (($x601 (>= ?x628 ?x911)))
 (let ((?x674 (ite $x601 (+ (- ?x628 ?x911) 1) (ite $x1281 (+ (- ?x628 ?x2983) 1) ?x632))))
 (let ((?x1625 (ite $x246 182 181)))
 (let (($x919 (>= ?x628 ?x1625)))
 (let ((?x622 (ite $x246 213 212)))
 (let (($x365 (>= ?x628 ?x622)))
 (let ((?x922 (ite $x365 (+ (- ?x628 ?x622) 1) (ite $x919 (+ (- ?x628 ?x1625) 1) ?x674))))
 (let ((?x598 (ite $x246 244 243)))
 (let (($x712 (>= ?x628 ?x598)))
 (let ((?x515 (ite $x246 274 273)))
 (let (($x236 (>= ?x628 ?x515)))
 (let ((?x2764 (ite $x236 (+ (- ?x628 ?x515) 1) (ite $x712 (+ (- ?x628 ?x598) 1) ?x922))))
 (let ((?x918 (ite $x246 305 304)))
 (let (($x717 (>= ?x628 ?x918)))
 (let ((?x608 (ite $x246 335 334)))
 (let (($x931 (>= ?x628 ?x608)))
 (let ((?x746 (ite $x931 (+ (- ?x628 ?x608) 1) (ite $x717 (+ (- ?x628 ?x918) 1) ?x2764))))
 (let ((?x301 (ite $x1281 5 (ite $x687 4 (ite $x610 3 (ite $x952 2 1))))))
 (let ((?x493 (ite $x712 9 (ite $x365 8 (ite $x919 7 (ite $x601 6 ?x301))))))
 (let ((?x660 (+ (ite $x931 12 (ite $x717 11 (ite $x236 10 ?x493))) (+ (* 0 12) 1))))
 (let ((?x436 (- ?x660 1)))
 (let ((?x1189 (+ (mod ?x436 12) 1)))
 (let ((?x758 (ite (or (= ?x1189 4) (= ?x1189 6) (= ?x1189 9) (= ?x1189 11)) 30 31)))
 (let (($x233 (and (= (mod (+ ?x397 (+ 0 (div ?x436 12))) 4) 0) (and (distinct (mod (+ ?x397 (+ 0 (div ?x436 12))) 100) 0) true))))
 (let (($x242 (or $x233 (= (mod (+ ?x397 (+ 0 (div ?x436 12))) 400) 0))))
 (let ((?x639 (ite (= ?x1189 2) (ite $x242 29 28) ?x758)))
 (let ((?x529 (ite (> 1 ?x746) 1 (ite (> ?x746 ?x639) ?x639 ?x746))))
 (let ((?x494 (ite (> 1 ?x529) 1 (ite (> ?x529 ?x639) ?x639 ?x529))))
 (let ((?x475 (ite (= 2 ?x1189) (ite $x242 31 31) (ite (= 1 ?x1189) (ite $x242 0 0) 0))))
 (let ((?x275 (ite (= 4 ?x1189) (ite $x242 91 90) (ite (= 3 ?x1189) (ite $x242 60 59) ?x475))))
 (let ((?x362 (ite (= 6 ?x1189) (ite $x242 152 151) (ite (= 5 ?x1189) (ite $x242 121 120) ?x275))))
 (let ((?x300 (ite (= 8 ?x1189) (ite $x242 213 212) (ite (= 7 ?x1189) (ite $x242 182 181) ?x362))))
 (let ((?x525 (ite (= 10 ?x1189) (ite $x242 274 273) (ite (= 9 ?x1189) (ite $x242 244 243) ?x300))))
 (let ((?x248 (ite (= 12 ?x1189) (ite $x242 335 334) (ite (= 11 ?x1189) (ite $x242 305 304) ?x525))))
 (let ((?x526 (+ (* 365 (- (+ ?x397 (+ 0 (div ?x436 12))) 1)) (div (- (+ ?x397 (+ 0 (div ?x436 12))) 1) 4))))
 (let ((?x467 (+ (- ?x526 (div (- (+ ?x397 (+ 0 (div ?x436 12))) 1) 100)) (div (- (+ ?x397 (+ 0 (div ?x436 12))) 1) 400))))
 (let ((?x541 (+ (+ (- (+ (+ ?x467 ?x248) (- ?x494 1)) 730179) 0) 730179)))
 (let ((?x1949 (mod ?x541 146097)))
 (let ((?x634 (div ?x1949 36524)))
 (let ((?x889 (ite (<= 4 ?x634) 3 ?x634)))
 (let ((?x459 (- ?x1949 (* ?x889 36524))))
 (let ((?x685 (mod ?x459 1461)))
 (let ((?x729 (div ?x685 365)))
 (let ((?x891 (ite (<= 4 ?x729) 3 ?x729)))
 (let ((?x691 (+ (+ (* (div ?x541 146097) 400) (* ?x889 100)) (* (div ?x459 1461) 4))))
 (let ((?x780 (+ (+ ?x691 ?x891) 1)))
 (let (($x743 (or (and (= (mod ?x780 4) 0) (and (distinct (mod ?x780 100) 0) true)) (= (mod ?x780 400) 0))))
 (let ((?x773 (- ?x685 (* ?x891 365))))
 (let ((?x481 (ite $x743 31 31)))
 (let (($x879 (>= ?x773 ?x481)))
 (let ((?x2268 (ite $x879 (+ (- ?x773 ?x481) 1) (+ (- ?x773 (ite $x743 0 0)) 1))))
 (let ((?x3299 (ite $x743 60 59)))
 (let (($x2792 (>= ?x773 ?x3299)))
 (let ((?x347 (ite $x743 91 90)))
 (let (($x716 (>= ?x773 ?x347)))
 (let ((?x702 (ite $x716 (+ (- ?x773 ?x347) 1) (ite $x2792 (+ (- ?x773 ?x3299) 1) ?x2268))))
 (let ((?x618 (ite $x743 121 120)))
 (let (($x3391 (>= ?x773 ?x618)))
 (let ((?x416 (ite $x743 152 151)))
 (let (($x1430 (>= ?x773 ?x416)))
 (let ((?x940 (ite $x1430 (+ (- ?x773 ?x416) 1) (ite $x3391 (+ (- ?x773 ?x618) 1) ?x702))))
 (let ((?x837 (ite $x743 182 181)))
 (let (($x486 (>= ?x773 ?x837)))
 (let ((?x790 (ite $x743 213 212)))
 (let (($x1807 (>= ?x773 ?x790)))
 (let ((?x563 (ite $x1807 (+ (- ?x773 ?x790) 1) (ite $x486 (+ (- ?x773 ?x837) 1) ?x940))))
 (let ((?x704 (ite $x743 244 243)))
 (let (($x524 (>= ?x773 ?x704)))
 (let ((?x554 (ite $x743 274 273)))
 (let (($x422 (>= ?x773 ?x554)))
 (let ((?x3147 (ite $x422 (+ (- ?x773 ?x554) 1) (ite $x524 (+ (- ?x773 ?x704) 1) ?x563))))
 (let ((?x607 (ite $x743 305 304)))
 (let (($x1549 (>= ?x773 ?x607)))
 (let ((?x650 (ite $x743 335 334)))
 (let (($x1219 (>= ?x773 ?x650)))
 (let ((?x581 (ite $x1219 (+ (- ?x773 ?x650) 1) (ite $x1549 (+ (- ?x773 ?x607) 1) ?x3147))))
 (let (($x770 (= 0 0)))
 (let (($x380 (= (mod (ite $x770 (+ ?x397 (+ 0 (div ?x436 12))) ?x780) 400) 0)))
 (let (($x747 (and (distinct (mod (ite $x770 (+ ?x397 (+ 0 (div ?x436 12))) ?x780) 100) 0) true)))
 (let (($x630 (= (mod (ite $x770 (+ ?x397 (+ 0 (div ?x436 12))) ?x780) 4) 0)))
 (let (($x686 (or (and $x630 $x747) $x380)))
 (let ((?x385 (ite $x3391 5 (ite $x716 4 (ite $x2792 3 (ite $x879 2 1))))))
 (let ((?x405 (ite $x524 9 (ite $x1807 8 (ite $x486 7 (ite $x1430 6 ?x385))))))
 (let ((?x579 (ite $x770 ?x1189 (ite $x1219 12 (ite $x1549 11 (ite $x422 10 ?x405))))))
 (let ((?x637 (ite (= 2 ?x579) (ite $x686 31 31) (ite (= 1 ?x579) (ite $x686 0 0) 0))))
 (let ((?x688 (ite (= 4 ?x579) (ite $x686 91 90) (ite (= 3 ?x579) (ite $x686 60 59) ?x637))))
 (let ((?x3419 (ite (= 6 ?x579) (ite $x686 152 151) (ite (= 5 ?x579) (ite $x686 121 120) ?x688))))
 (let ((?x3599 (ite (= 8 ?x579) (ite $x686 213 212) (ite (= 7 ?x579) (ite $x686 182 181) ?x3419))))
 (let ((?x1918 (ite (= 10 ?x579) (ite $x686 274 273) (ite (= 9 ?x579) (ite $x686 244 243) ?x3599))))
 (let ((?x3393 (ite (= 12 ?x579) (ite $x686 335 334) (ite (= 11 ?x579) (ite $x686 305 304) ?x1918))))
 (let ((?x680 (+ ?x397 (+ 0 (div ?x436 12)))))
 (let ((?x578 (ite $x770 ?x680 ?x780)))
 (let ((?x856 (- ?x578 1)))
 (let ((?x772 (+ (- (+ (* 365 ?x856) (div ?x856 4)) (div ?x856 100)) (div ?x856 400))))
 (= y_days (- (+ (+ ?x772 ?x3393) (- (ite $x770 ?x494 ?x581) 1)) 730179))))))))))))))))))))))))))))))))))))))))))))))))))))))))))))))))))))))))))))))))))))))))))))))))))))))))))))))))))))))))
(assert
 (= z_days (+ x_days 30)))
(assert
 (not (= y_days z_days)))
(check-sat)
